(set-logic QF_S)
(declare-fun var0 () String)
(declare-fun var1 () Int)
(declare-fun var2 () Int)
(declare-fun var3 () String)
(declare-fun var4 () Int)
(declare-fun var5 () Int)
(declare-fun var6 () String)
(declare-fun var7 () String)
(assert (str.contains (str.substr var0 var1 132) (str.at "){)1ei" var2)))
(assert (str.prefixof (str.substr var3 var4 var5) (str.at var6 var4)))
(assert (> (str.len var7) (str.len var0)))
(assert (>= var1 22))
(check-sat)